coords = array2d(1..24, 1..2, [611, 890, 936, 816, 427, 349, 566, 894, 410,
    817, 87, 436, 481, 412, 629, 576, 998, 197, 921, 495, 743, 855, 1,
    123, 310, 418, 562, 552, 45, 234, 133, 561, 627, 108, 373, 961,
    919, 753, 397, 715, 585, 93, 812, 527, 140, 847, 844, 602]);

n = 24;

